
Welcome to IBM(R) ILOG(R) CPLEX(R) Interactive Optimizer 22.1.1.0
  with Simplex, Mixed Integer & Barrier Optimizers
5725-A06 5725-A29 5724-Y48 5724-Y49 5724-Y54 5724-Y55 5655-Y21
Copyright IBM Corp. 1988, 2022.  All Rights Reserved.

Type 'help' for a list of available commands.
Type 'help' followed by a command name for more
information on commands.

CPLEX> New value for default parallel thread count: 1
CPLEX> New value for time limit in seconds: 20
CPLEX> New value for mixed integer optimality gap tolerance: 0
CPLEX> Problem 'results\sealed_closure_round\raw\moderate_seed3301_auto_oracle\interval_1.lp' read.
Read time = 0.02 sec. (0.57 ticks)
CPLEX> Version identifier: 22.1.1.0 | 2022-11-27 | 9160aff4d
CPXPARAM_Threads                                 1
CPXPARAM_TimeLimit                               20
CPXPARAM_MIP_Tolerances_MIPGap                   0
Tried aggregator 2 times.
MIP Presolve eliminated 166 rows and 39 columns.
MIP Presolve modified 672 coefficients.
Aggregator did 62 substitutions.
Reduced MIP has 4831 rows, 2016 columns, and 22736 nonzeros.
Reduced MIP has 1456 binaries, 192 generals, 0 SOSs, and 0 indicators.
Presolve time = 0.02 sec. (23.73 ticks)
Probing fixed 0 vars, tightened 15 bounds.
Probing time = 0.03 sec. (50.66 ticks)
Tried aggregator 1 time.
Detecting symmetries...
MIP Presolve eliminated 12 rows and 12 columns.
MIP Presolve modified 24 coefficients.
Reduced MIP has 4819 rows, 2004 columns, and 22448 nonzeros.
Reduced MIP has 1450 binaries, 186 generals, 0 SOSs, and 0 indicators.
Presolve time = 0.02 sec. (17.96 ticks)
Probing time = 0.02 sec. (24.95 ticks)
Clique table members: 12104.
MIP emphasis: balance optimality and feasibility.
MIP search method: dynamic search.
Parallel mode: none, using 1 thread.
Root relaxation solution time = 0.08 sec. (181.73 ticks)

        Nodes                                         Cuts/
   Node  Left     Objective  IInf  Best Integer    Best Bound    ItCnt     Gap

      0     0        0.0370   203                      0.0370     1767
      0     0        0.0408   231                   Cuts: 165     2345
      0     0        0.0415   240                   Cuts: 143     3044
      0     0        0.0415   256                   Cuts: 125     3628
      0     0        0.0415   192                    Cuts: 48     3739
      0     0        0.0415   194                    Cuts: 71     3851
Detecting symmetries...
Detecting symmetries...
      0     2        0.0415   170                      0.0415     3851
Elapsed time = 0.83 sec. (2162.85 ticks, tree = 0.01 MB, solutions = 0)
     10    12        0.0427   161                      0.0415     5145
     24    26        0.0471   123                      0.0415     6607
     57    57        0.0475   166                      0.0415     9159
     95    85        0.0417   201                      0.0416    11619
    128    98        0.0417   273                      0.0417    14742
    140   108        0.0432   226                      0.0417    15700
    182   140        0.0474   182                      0.0417    17791
    215   158        0.0417   217                      0.0417    21464
    239   178        0.0441   195                      0.0418    23502
    350   237        0.0433   166                      0.0421    30130
Elapsed time = 2.39 sec. (6242.54 ticks, tree = 0.75 MB, solutions = 0)
    520   377        0.0449   131                      0.0423    37873
    623   453        0.0436   190                      0.0424    45431
    821   605        0.0482   197                      0.0425    53729
    940   682    infeasible                            0.0426    61957
   1083   765    infeasible                            0.0427    68951
   1233   881        0.0474   171                      0.0427    76753
   1342   970        0.0474   134                      0.0428    84277

Performing restart 1

Repeating presolve.
Tried aggregator 1 time.
MIP Presolve eliminated 21 rows and 11 columns.
MIP Presolve modified 139 coefficients.
Reduced MIP has 4798 rows, 1993 columns, and 22386 nonzeros.
Reduced MIP has 1446 binaries, 183 generals, 0 SOSs, and 0 indicators.
Presolve time = 0.00 sec. (22.85 ticks)
Tried aggregator 1 time.
MIP Presolve modified 20 coefficients.
Reduced MIP has 4798 rows, 1993 columns, and 22386 nonzeros.
Reduced MIP has 1446 binaries, 183 generals, 0 SOSs, and 0 indicators.
Presolve time = 0.02 sec. (12.43 ticks)
Represolve time = 0.06 sec. (148.02 ticks)
   1476     0        0.0420   240                   Cuts: 157    98259
   1476     0        0.0422   237                   Cuts: 322   101145
   1476     0        0.0425   285                   Cuts: 216   105051
   1476     0        0.0426   299                   Cuts: 234   108833
   1476     0        0.0427   283                   Cuts: 329   111579
   1476     0        0.0427   285                   Cuts: 293   115446
   1476     0        0.0427   320                   Cuts: 267   117844
   1476     0        0.0428   354                   Cuts: 296   120644
   1476     0        0.0428   301                   Cuts: 271   124017
   1476     0        0.0428   307                   Cuts: 241   125215
   1476     0        0.0429   313                   Cuts: 309   131564
   1476     0        0.0429   313                   Cuts: 342   133957
   1476     0        0.0429   296                   Cuts: 289   136163
   1476     0        0.0429   288                   Cuts: 153   137661
   1476     0        0.0429   270                   Cuts: 148   138530
   1476     0        0.0429   276                   Cuts: 269   139097
   1476     0        0.0429   235                   Cuts: 193   139404
   1476     0        0.0429   226                   Cuts: 159   139593
   1476     0        0.0429   259                   Cuts: 171   148942
   1476     2        0.0429   220                      0.0429   148942
   1478     4        0.0432   222                      0.0429   154624
   1479     5        0.0434   241                      0.0429   157642
Elapsed time = 18.41 sec. (47341.35 ticks, tree = 0.01 MB, solutions = 0)
   1482     8        0.0439   232                      0.0429   157752
   1489    14        0.0450   210                      0.0429   158003
   1494    19        0.0460   197                      0.0429   160603
   1507    31        0.0485   174                      0.0429   160750

GUB cover cuts applied:  2
Cover cuts applied:  10
Implied bound cuts applied:  7
Flow cuts applied:  29
Mixed integer rounding cuts applied:  230
Zero-half cuts applied:  12
Lift and project cuts applied:  18
Gomory fractional cuts applied:  6

Root node processing (before b&c):
  Real time             =    0.83 sec. (2130.33 ticks)
Sequential b&c:
  Real time             =   19.19 sec. (49655.77 ticks)
                          ------------
Total (root+branch&cut) =   20.02 sec. (51786.10 ticks)


MIP - Time limit exceeded, no integer solution.
Current MIP best bound =  4.2940740091e-02 (gap is infinite)
Solution time =   20.02 sec.  Iterations = 161137  Nodes = 1511 (30)
Deterministic time = 51786.11 ticks  (2587.36 ticks/sec)

CPLEX> CPLEX Error  1217: No solution exists.
No file written.
CPLEX>
